20
587 233 220
68 35 27
118 57 43
73 72 36
85 58 50
86 56 33
99 44 31
93 54 49
89 69 26
98 90 74
58 48 46
56 55 22
104 63 59
80 69 66
110 59 58
96 79 63
82 77 57
55 48 34
120 99 40
97 43 34
115 68 55
thpack7_34